36
94
66
48
98
29
68
54
12
59
97
27
83
0
92
93
67
99
62
91
82
17
16
30
38
1
70
23
2
26
34
32
37
40
50
33
69
14
72
56
3
47
58
86
8
89
21
22
7
15
41
4
44
28
63
25
31
78
9
85
18
71
76
24
57
81
84
46
42
51
53
20
75
60
65
90
11
77
52
39
5
61
96
64
49
95
43
35
80
10
13
74
55
73
79
87
19
45
88
6
36
